(set-info :Origin "This instance was generated by: BanditFuzz-- an RL fuzzer for SMT solvers" )
(set-info :Author "Joe Scott, Fed Mora, Vijay Ganesh" )
(set-info :Contact "Joe Scott, joseph.scott@uwaterloo.ca")
(set-logic QF_BV)
(declare-const bool_0 Bool)
(declare-const bool_1 Bool)
(declare-const bool_2 Bool)
(declare-const bool_3 Bool)
(declare-const bool_4 Bool)
(declare-const bv_0 (_ BitVec 32))
(declare-const bv_1 (_ BitVec 32))
(declare-const bv_2 (_ BitVec 32))
(declare-const bv_3 (_ BitVec 32))
(declare-const bv_4 (_ BitVec 32))
(assert (not (bvsle (bvmul bv_1 #x156d31ec ) (bvand bv_1 bv_3))))
(assert (bvult (bvor (bvurem #x178413cd  #x058cc8fe ) (bvsdiv #x5552abf3  #x9778b9b1 )) (bvsmod (bvashr #x0894c12c  #xa4e7f04d ) (bvnand #xeb819fb9  #x3410f7ae ))))
(assert (bvslt (bvxor (bvshl bv_0 #x8f379285 ) (bvsmod bv_3 #xee857d66 )) (bvand (bvadd #x12b8082e  bv_4) (bvlshr #x8416f138  #x9cac5d08 ))))
(assert (bvugt (bvsmod (bvand bv_4 #xeef3ae68 ) (bvxnor #x9052f49b  bv_0)) (bvand (bvsrem #x3106fa28  bv_2) (bvnand bv_3 bv_0))))
(assert (bvsle (bvsmod (bvsrem #xda5faa43  #x5ed8b3a6 ) (bvshl #xa3846590  #xddcdf478 )) (bvlshr (bvadd bv_0 bv_4) (bvsdiv #x0ae74be1  #x0ecd4283 ))))
(check-sat)
(exit)
